nJobs = 6;
nMachines = 6;

// machine[j][k] = machine used by job j at operation k (1..6)
machine = [
  [3, 1, 2, 4, 6, 5],
  [2, 3, 1, 5, 6, 4],
  [3, 2, 6, 1, 4, 5],
  [2, 1, 3, 4, 6, 5],
  [3, 2, 1, 4, 6, 5],
  [2, 4, 6, 5, 1, 3]
];

// duration[j][k] = processing time of job j at operation k
duration = [
  [1, 3, 6, 7, 3, 6],
  [8, 5,10,10,10, 4],
  [5, 4, 9, 1, 7, 8],
  [5, 5, 3, 3, 9, 8],
  [9, 3, 5, 4, 1, 3],
  [3, 3,10, 4, 1, 3]
];
